language Essence 1.3

letting graph be
        function((1, 2) --> red, (1, 3) --> red, (1, 4) --> blue, (1, 5) --> blue, (2, 1) --> red, (2, 3) --> blue,
                 (2, 4) --> red, (2, 5) --> blue, (3, 1) --> red, (3, 2) --> blue, (3, 4) --> blue, (3, 5) --> red,
                 (4, 1) --> blue, (4, 2) --> red, (4, 3) --> blue, (4, 5) --> red, (5, 1) --> blue, (5, 2) --> blue,
                 (5, 3) --> red, (5, 4) --> red)
